c File: instances/40_0.10_2.col
c
c Description: Random graph of size 40 vertices and P(0.1) of edges between any two vertices.
p col 40 780
e 1 3
e 1 4
e 1 7
e 1 13
e 2 4
e 2 5
e 2 8
e 2 17
e 2 24
e 3 30
e 3 35
e 4 18
e 4 21
e 4 22
e 4 24
e 4 36
e 5 24
e 6 11
e 6 12
e 6 16
e 6 31
e 6 36
e 7 13
e 7 24
e 7 26
e 7 27
e 7 30
e 7 34
e 7 39
e 8 18
e 8 29
e 8 30
e 9 27
e 9 33
e 9 36
e 9 37
e 9 39
e 10 16
e 10 18
e 11 18
e 11 26
e 11 27
e 11 33
e 11 38
e 12 14
e 13 16
e 13 21
e 13 37
e 14 15
e 14 29
e 14 33
e 15 29
e 15 34
e 16 22
e 16 26
e 16 32
e 16 38
e 17 19
e 17 35
e 17 38
e 17 39
e 18 21
e 18 25
e 18 33
e 18 35
e 18 38
e 19 25
e 20 21
e 20 39
e 21 36
e 22 26
e 22 31
e 22 35
e 22 39
e 23 38
e 23 40
e 24 36
e 26 32
e 26 37
e 27 34
e 27 37
e 28 32
e 28 34
e 28 36
e 30 32
e 32 33
e 32 40
e 33 37
e 34 37
e 35 40
e 36 37
e 38 40